491,596
453,480
532,700
713,199
470,697
533,258
945,42
893,618
654,491
602,-97
875,547
339,295
745,605
441,406
611,503
227,175
399,794
1166,249
1184,327
558,237
452,91
593,420
515,-107
382,-6
923,582
339,295
575,300
415,448
667,318
463,564
782,93
